50

100 26 260
99 4 544
98 41 250
96 24 563
94 1 539
92 19 402
90 45 436
89 10 436
89 32 683
89 16 702
87 10 349
86 4 352
81 32 244
80 28 630
78 1 343
77 9 386
74 20 494
74 15 606
72 23 696
72 6 420
63 7 517
62 26 696
60 29 667
60 11 636
55 3 724
55 19 343
54 23 563
53 11 634
50 14 547
50 4 420
46 18 435
46 18 255
45 8 706
42 1 389
42 7 688
41 16 496
38 10 256
35 16 584
34 8 582
33 16 352
33 7 638
32 3 318
28 13 668
28 8 374
27 9 357
26 8 445
23 11 670
21 4 278
21 2 281
20 10 738
